p cnf 30 30
10 29 11 0
14 17 -24 0
-12 4 11 0
-30 28 12 0
18 13 9 0
-10 -11 20 0
19 -14 -24 0
16 18 26 0
-2 -28 -5 0
-30 -1 6 0
-28 -21 -9 0
-28 27 2 0
-19 21 -26 0
16 -20 -9 0
18 -28 20 0
-2 10 3 0
14 15 -19 0
-16 11 4 0
16 -5 -17 0
-10 17 -20 0
8 -25 21 0
-13 -22 19 0
5 1 13 0
-26 -11 -24 0
18 -28 -7 0
-19 28 -17 0
3 -18 -30 0
6 -17 20 0
10 8 3 0
-1 19 -8 0
